100 10
874 406
217 506
360 637
656 620
775 291
468 719
635 779
276 780
624 580
484 578
464 262
530 763
629 126
958 242
678 553
870 556
422 889
177 800
367 391
277 236
381 370
680 271
614 335
746 379
628 122
873 422
87 513
409 701
434 615
561 296
782 178
644 375
826 104
214 270
475 791
922 609
822 724
446 772
357 641
497 649
540 69
616 278
154 731
796 325
451 715
194 603
617 296
870 472
633 112
580 506
933 211
888 181
531 556
653 610
459 788
655 138
423 176
691 434
396 471
246 691
482 392
416 666
909 581
711 515
757 243
723 580
958 271
357 440
906 474
451 560
498 513
638 346
599 881
705 652
694 741
667 378
946 188
687 339
918 563
639 554
372 782
606 176
635 311
390 308
882 878
237 178
944 465
670 478
674 665
554 214
454 842
867 253
762 612
257 668
674 454
488 473
208 861
312 528
153 186
244 806
